data;

param n:=30;
param p:=3;
param r:=[1] 0 [2] 1 [3] 6 [4] 3 [5] 1 [6] 5 [7] 14 [8] 0 [9] 15 [10] 21 [11] 20 [12] 19 [13] 26 [14] 16 [15] 26 [16] 1 [17] 37 [18] 24 [19] 36 [20] 34 [21] 11 [22] 34 [23] 66 [24] 8 [25] 27 [26] 41 [27] 62 [28] 34 [29] 14 [30] 76 ;
param w:=[1] 7 [2] 64 [3] 24 [4] 66 [5] 77 [6] 52 [7] 50 [8] 79 [9] 71 [10] 6 [11] 43 [12] 84 [13] 97 [14] 1 [15] 91 [16] 34 [17] 88 [18] 13 [19] 96 [20] 93 [21] 13 [22] 41 [23] 33 [24] 35 [25] 57 [26] 63 [27] 11 [28] 88 [29] 51 [30] 83 ;

end;
